; generated by godel from rulebook `income_tax` — do not edit by hand
(define-fun slab ((ti Int)) Int (+ (+ (+ (+ (+ (ite (> ti 400000) (div (* 5 (- (ite (<= ti 800000) ti 800000) 400000)) 100) 0) (ite (> ti 800000) (div (* 10 (- (ite (<= ti 1200000) ti 1200000) 800000)) 100) 0)) (ite (> ti 1200000) (div (* 15 (- (ite (<= ti 1600000) ti 1600000) 1200000)) 100) 0)) (ite (> ti 1600000) (div (* 20 (- (ite (<= ti 2000000) ti 2000000) 1600000)) 100) 0)) (ite (> ti 2000000) (div (* 25 (- (ite (<= ti 2400000) ti 2400000) 2000000)) 100) 0)) (ite (> ti 2400000) (div (* 30 (- ti 2400000)) 100) 0)))
(define-fun rebated ((ti Int)) Int (ite (<= ti 1200000) 0 (ite (<= (slab ti) (- ti 1200000)) (slab ti) (- ti 1200000))))
(define-fun surRate ((ti Int)) Int (ite (<= ti 5000000) 0 (ite (<= ti 10000000) 10 (ite (<= ti 20000000) 15 25))))
(define-fun surRaw ((ti Int)) Int (div (* (surRate ti) (rebated ti)) 100))
(define-fun marginC ((ti Int)) Int (ite (<= ti 5000000) 0 (ite (<= ti 10000000) 5000000 (ite (<= ti 20000000) 10000000 20000000))))
(define-fun taxPlusSur ((ti Int)) Int (+ (rebated ti) (surRaw ti)))
(define-fun marginCap ((ti Int)) Int (ite (= (marginC ti) 0) (taxPlusSur ti) (+ (taxPlusSur (marginC ti)) (- ti (marginC ti)))))
(define-fun taxSurRelieved ((ti Int)) Int (ite (<= (taxPlusSur ti) (marginCap ti)) (taxPlusSur ti) (marginCap ti)))
(define-fun cess ((ti Int)) Int (div (* 4 (taxSurRelieved ti)) 100))
(define-fun tax ((ti Int)) Int (+ (taxSurRelieved ti) (cess ti)))
(declare-const ti Int)

; guardrail tax_nonneg: expect `unsat` (no input breaks it)
(push)
(assert (>= ti 0))
(assert (not (>= (tax ti) 0)))
(check-sat)
(pop)

; guardrail tax_le_income: expect `unsat` (no input breaks it)
(push)
(assert (>= ti 0))
(assert (not (<= (tax ti) ti)))
(check-sat)
(pop)

; guardrail relief_le_raw: expect `unsat` (no input breaks it)
(push)
(assert (>= ti 0))
(assert (not (<= (taxSurRelieved ti) (taxPlusSur ti))))
(check-sat)
(pop)

; guardrail relief_le_cap: expect `unsat` (no input breaks it)
(push)
(assert (>= ti 0))
(assert (not (<= (taxSurRelieved ti) (marginCap ti))))
(check-sat)
(pop)
